p cnf 7230 16
-3490 -3492 -3540 4006 -4009 0
3490 -4007 0
3492 -4007 0
3540 -4007 0
-4005 4009 0
-4006 4007 0
-4007 4009 0
4008 -4009 0
4004 -4008 0
-3480 4005 0
3480 -4004 0
-1654 -3472 4011 0
-4002 4003 0
4002 -4003 0
3472 -4011 0
1654 -4011 0
